
Gurobi 6.5.2 (linux64) logging started Wed Aug 31 10:35:25 2016

Optimize a model with 41 rows, 77 columns and 181 nonzeros
Coefficient statistics:
  Matrix range    [1e+00, 2e+00]
  Objective range [1e+00, 1e+02]
  Bounds range    [1e+00, 1e+00]
  RHS range       [1e+00, 1e+00]
Presolve removed 16 rows and 11 columns
Presolve time: 0.00s
Presolved: 25 rows, 66 columns, 140 nonzeros
Variable types: 0 continuous, 66 integer (66 binary)
Found heuristic solution: objective 784.0000000

Root relaxation: objective 4.997500e+02, 27 iterations, 0.00 seconds

    Nodes    |    Current Node    |     Objective Bounds      |     Work
 Expl Unexpl |  Obj  Depth IntInf | Incumbent    BestBd   Gap | It/Node Time

     0     0  499.75000    0   14  784.00000  499.75000  36.3%     -    0s
H    0     0                     745.0000000  499.75000  32.9%     -    0s
H    0     0                     560.0000000  499.75000  10.8%     -    0s
H    0     0                     553.0000000  499.75000  9.63%     -    0s
*    0     0               0     530.0000000  530.00000  0.00%     -    0s

Cutting planes:
  Gomory: 4
  Cover: 12

Explored 0 nodes (38 simplex iterations) in 0.00 seconds
Thread count was 8 (of 8 available processors)

Optimal solution found (tolerance 1.00e-04)
Best objective 5.300000000000e+02, best bound 5.300000000000e+02, gap 0.0%
